sing20130222.12
TTAA  72121 48698
99006 29263 03009 00064 27061 03502 92751 22644 35518
85484 18225 30015 70125 10458 29026 50585 04149 13505
40758 14347 20009 30970 29359 17513 25097 40158 10029
20246 52162 10050 15425 67758 10568 10658 82358 09072
88999
77119 11078 41231=
=
TTDD  7212/ 48698
11936 78358 22904 78359 33873 78957 44835 77159 55815
769//
21212 11991 09072 22925 09041 33906 09037 44888 08529
55847 10509 66815 23010=
